Sun 20 May 09:23:45 CEST 2018
CPXPARAM_TimeLimit                               45
CPXPARAM_Threads                                 4
CPXPARAM_MIP_Strategy_CallbackReducedLP          0
Tried aggregator 3 times.
MIP Presolve eliminated 4614 rows and 3489 columns.
MIP Presolve modified 10258 coefficients.
Aggregator did 18788 substitutions.
Reduced MIP has 24836 rows, 17176 columns, and 55114 nonzeros.
Reduced MIP has 15673 binaries, 7 generals, 0 SOSs, and 1664 indicators.
Presolve time = 0.32 sec. (859.48 ticks)
Found incumbent of value 28.000000 after 0.45 sec. (982.02 ticks)
Probing time = 0.47 sec. (142.69 ticks)
Tried aggregator 3 times.
Aggregator did 11622 substitutions.
Reduced MIP has 13214 rows, 5554 columns, and 31870 nonzeros.
Reduced MIP has 4051 binaries, 1503 generals, 0 SOSs, and 1664 indicators.
Presolve time = 0.06 sec. (60.34 ticks)
Probing time = 0.15 sec. (84.76 ticks)
Tried aggregator 1 time.
Reduced MIP has 13214 rows, 5554 columns, and 31870 nonzeros.
Reduced MIP has 4051 binaries, 1503 generals, 0 SOSs, and 1664 indicators.
Presolve time = 0.03 sec. (27.56 ticks)
Probing time = 0.01 sec. (7.78 ticks)
Clique table members: 217780.
MIP emphasis: balance optimality and feasibility.
MIP search method: dynamic search.
Parallel mode: deterministic, using up to 4 threads.
Root relaxation solution time = 0.18 sec. (151.18 ticks)

        Nodes                                         Cuts/
   Node  Left     Objective  IInf  Best Integer    Best Bound    ItCnt     Gap

*     0+    0                           28.0000        0.0000           100.00%
      0     0        0.0000  2368       28.0000        0.0000     1380  100.00%
*     0+    0                            6.0000        0.0000           100.00%
      0     0        0.0000   982        6.0000       Cuts: 3     1410   50.00%
      0     0        0.0000  1198        6.0000      Cuts: 44     1616   50.00%
      0     0        0.0000   942        6.0000      Cuts: 47     1639   50.00%
      0     0        0.0000   899        6.0000      Cuts: 48     1794   50.00%
      0     0        0.0000   939        6.0000      Cuts: 76     2020   50.00%
      0     2        0.0000   335        6.0000        3.0000     2553   50.00%
Elapsed time = 24.07 sec. (13572.98 ticks, tree = 0.01 MB, solutions = 2)
      8     4        0.0000   483        6.0000        3.0000     4163   50.00%
     58    37        0.2500   238        6.0000        3.0000     8780   50.00%
    104    37    infeasible              6.0000        3.0000    14018   50.00%
    156    30        5.0000   228        6.0000        3.0000    19074   50.00%
    211    16        5.0000   124        6.0000        3.0000    25061   50.00%

Clique cuts applied:  3
Cover cuts applied:  4
Implied bound cuts applied:  216
Zero-half cuts applied:  56

Root node processing (before b&c):
  Real time             =   24.00 sec. (13505.10 ticks)
Parallel b&c, 4 threads:
  Real time             =    1.82 sec. (1410.87 ticks)
  Sync time (average)   =    0.27 sec.
  Wait time (average)   =    0.00 sec.
                          ------------
Total (root+branch&cut) =   25.82 sec. (14915.97 ticks)
   | W
 L | 0 1 2 3 4 5 6 7 
--------------------
 0 | 3 3 3 1 1 1 2 2 
 1 | 3 3 3 1 1 1 2 2 
 2 | 3 3 3 . . . 2 2 
 3 | . 6 6 6 6 6 6 6 
 4 | 5 5 5 5 5 5 5 . 
 5 | 4 4 4 4 4 4 4 . 
 6 | . . . . . . . . 
 7 | . . . . . . . . 
 8 | . . . . . . . . 
 9 | . . . . . . . . 
10 | . . . . . . . . 
11 | . . . . . . . . 
12 | . . . . . . . . 
13 | . . . . . . . . 
14 | . . . . . . . . 
15 | . . . . . . . . 
16 | . . . . . . . . 
17 | . . . . . . . . 
18 | . . . . . . . . 
19 | . . . . . . . . 
20 | . . . . . . . . 
21 | . . . . . . . . 
22 | . . . . . . . . 
23 | . . . . . . . . 
24 | . . . . . . . . 
25 | . . . . . . . . 
26 | . . . . . . . . 
27 | . . . . . . . . 
28 | . . . . . . . . 
29 | . . . . . . . . 

Boxes' corners:      (w,l)
    Box 1 is at 
        top left     (3,0)
        bottom right (5,1)

    Box 2 is at 
        top left     (6,0)
        bottom right (7,2)

    Box 3 is at 
        top left     (0,0)
        bottom right (2,2)

    Box 4 is at 
        top left     (0,5)
        bottom right (6,5)

    Box 5 is at 
        top left     (0,4)
        bottom right (6,4)

    Box 6 is at 
        top left     (1,3)
        bottom right (7,3)

    Roll length used: 6
In 99.69 seconds
